c turning on binary mode checking
c parsing input formula with 259840 variables and 1039924 clauses
c finished parsing, read 3174931 bytes from proof file
c detected empty clause; start verification via backward checking
c 5943 of 1039924 clauses in core                            
c 2083 of 124742 lemmas in core using 64898 resolution steps
c 0 RAT lemmas in core; 399 redundant literals in core lemmas
s VERIFIED
c verification time: 1.450 seconds
